(set-logic ALL)
(declare-const k Int)
(declare-fun s () (_ BitVec k))
(declare-fun t () (_ BitVec k))
(assert (not (distinct (bvule s (bvudiv s (bvand s t))) (bvule (bvand s t) (_ bv1 k)))))
(check-sat)
